Normalized Data/p03_6_normalized_splitx10_0.vrp
NAME:p03_6_NORMALIZED_splitx10_
BEST_KNOWN: 0
COMMENT: 0
DIMENSION: 415
CAPACITY: 1000
EDGE_WEIGHT_FORMAT: FUNCTION
EDGE_WEIGHT_TYPE: EXACT_2D
NODE_COORD_SECTION
1 0.00000 0.00000
2 -13 -16
3 -13 -16
4 -13 -16
5 -13 -16
6 -13 -16
7 -13 -16
8 11 1
9 11 1
10 11 1
11 11 1
12 11 1
13 43 31
14 43 31
15 43 31
16 50 -22
17 50 -22
18 42 -42
19 42 -42
20 42 -42
21 42 -42
22 35 3
23 35 3
24 35 3
25 35 3
26 12 43
27 12 43
28 12 43
29 12 43
30 24 -20
31 24 -20
32 24 -20
33 24 -20
34 24 -20
35 24 -20
36 33 3
37 33 3
38 33 3
39 33 3
40 33 3
41 33 3
42 23 8
43 23 8
44 -40 13
45 -40 13
46 -40 13
47 -40 13
48 18 -40
49 18 -40
50 18 -40
51 18 -40
52 18 -40
53 -15 45
54 -15 45
55 -15 45
56 -24 -48
57 -24 -48
58 -24 -48
59 -24 -48
60 12 20
61 12 20
62 12 20
63 12 20
64 12 20
65 12 20
66 -38 23
67 -38 23
68 -22 45
69 -22 45
70 -22 45
71 -21 28
72 -21 28
73 -21 28
74 -21 28
75 -21 28
76 -21 28
77 11 -16
78 11 -16
79 11 -16
80 11 -16
81 3 14
82 3 14
83 3 14
84 3 14
85 3 14
86 -23 26
87 -23 26
88 3 -14
89 3 -14
90 3 -14
91 28 -5
92 28 -5
93 28 -5
94 28 -5
95 -41 22
96 -41 22
97 -38 -48
98 -38 -48
99 -38 -48
100 -38 -48
101 28 -18
102 28 -18
103 28 -18
104 28 -18
105 28 -18
106 -18 -31
107 -18 -31
108 -18 -31
109 -18 -31
110 -18 -31
111 23 11
112 23 11
113 23 11
114 23 11
115 23 11
116 -8 37
117 -8 37
118 -8 37
119 -8 37
120 -8 37
121 -8 37
122 -8 37
123 -12 7
124 -12 7
125 -12 7
126 -12 7
127 -12 7
128 -45 -21
129 -45 -21
130 -45 -21
131 -24 19
132 -24 19
133 -24 19
134 -35 -34
135 1 -35
136 1 -35
137 -27 23
138 -27 23
139 -27 23
140 -27 23
141 -27 23
142 -27 23
143 18 20
144 18 20
145 18 20
146 18 20
147 18 20
148 23 32
149 23 32
150 -43 40
151 -43 40
152 -43 40
153 -43 40
154 -43 40
155 11 22
156 11 22
157 11 22
158 11 22
159 -42 10
160 -42 10
161 -42 10
162 29 -38
163 29 -38
164 12 1
165 12 1
166 12 1
167 12 1
168 -44 -20
169 -44 -20
170 -44 -20
171 -44 -20
172 -49 0
173 -49 0
174 -49 0
175 42 -29
176 42 -29
177 42 -29
178 42 -29
179 -44 12
180 -44 12
181 -44 12
182 -44 12
183 -34 49
184 -34 49
185 -4 33
186 -4 33
187 -4 33
188 -4 33
189 40 35
190 40 35
191 40 35
192 40 35
193 40 35
194 -6 29
195 -6 29
196 -6 29
197 -6 29
198 -6 29
199 -6 29
200 50 15
201 50 15
202 50 15
203 50 15
204 -33 4
205 -33 4
206 -33 4
207 43 42
208 43 42
209 43 42
210 43 42
211 34 22
212 34 22
213 34 22
214 34 22
215 34 22
216 34 22
217 -21 -40
218 -21 -40
219 -21 -40
220 -21 -40
221 -21 -40
222 28 4
223 28 4
224 28 4
225 28 4
226 28 4
227 -26 5
228 -26 5
229 -26 5
230 -26 5
231 -26 5
232 17 28
233 17 28
234 17 28
235 17 28
236 17 28
237 -19 -31
238 -19 -31
239 -46 32
240 -46 32
241 -46 32
242 -46 32
243 -46 32
244 -35 41
245 -35 41
246 -35 41
247 8 -15
248 8 -15
249 8 -15
250 22 -32
251 22 -32
252 22 -32
253 -24 -1
254 -24 -1
255 -24 -1
256 -24 -1
257 -24 -1
258 -25 29
259 -25 29
260 -25 29
261 -25 29
262 -25 29
263 -25 29
264 19 -25
265 19 -25
266 19 -25
267 19 -25
268 35 0
269 35 0
270 -19 6
271 -19 6
272 -19 6
273 -19 6
274 -19 6
275 -19 6
276 -19 6
277 47 -15
278 47 -15
279 47 -15
280 47 -15
281 25 -33
282 25 -33
283 25 -33
284 25 -33
285 25 -33
286 25 -33
287 17 -30
288 17 -30
289 17 -30
290 -46 -2
291 -46 -2
292 -46 -2
293 -6 36
294 -6 36
295 -6 36
296 -6 36
297 -6 36
298 -6 36
299 40 5
300 40 5
301 40 5
302 40 5
303 -8 -3
304 -8 -3
305 -8 -3
306 23 33
307 23 33
308 -2 6
309 -2 6
310 -2 6
311 -32 19
312 -32 19
313 2 -43
314 2 -43
315 2 -43
316 2 -43
317 2 -43
318 7 -50
319 7 -50
320 7 -50
321 7 -50
322 12 -3
323 12 -3
324 12 -3
325 12 -3
326 12 -3
327 50 -1
328 50 -1
329 50 -1
330 50 -1
331 50 -1
332 50 -1
333 50 -1
334 -32 -33
335 -32 -33
336 -32 -33
337 -32 -33
338 27 4
339 27 4
340 27 4
341 27 4
342 27 4
343 27 4
344 27 4
345 22 39
346 22 39
347 44 -10
348 44 -10
349 44 -10
350 44 -10
351 44 -10
352 44 -10
353 44 -10
354 -47 24
355 -47 24
356 -47 24
357 10 -42
358 10 -42
359 10 -42
360 10 -42
361 -42 39
362 -42 39
363 -42 39
364 -42 39
365 -4 -29
366 -4 -29
367 -4 -29
368 -4 -29
369 0 24
370 0 24
371 0 24
372 0 24
373 0 24
374 -22 -46
375 -22 -46
376 -22 -46
377 -22 -46
378 -22 -46
379 -14 -4
380 -14 -4
381 -14 -4
382 -14 -4
383 -14 -4
384 -14 -4
385 -37 36
386 -37 36
387 -37 36
388 -37 36
389 37 -50
390 37 -50
391 37 -50
392 37 -50
393 37 -50
394 29 -23
395 29 -23
396 29 -23
397 29 -23
398 29 -23
399 29 -23
400 -29 -19
401 -29 -19
402 -29 -19
403 -29 -19
404 -29 -19
405 14 -9
406 14 -9
407 14 -9
408 -16 39
409 -16 39
410 -16 39
411 -40 37
412 -40 37
413 -40 37
414 -40 37
415 -40 37
DEMAND_SECTION
1 0
2 200
3 200
4 10
5 10
6 10
7 10
8 200
9 100
10 50
11 10
12 10
13 100
14 50
15 10
16 200
17 50
18 200
19 10
20 10
21 10
22 200
23 100
24 10
25 10
26 200
27 50
28 10
29 10
30 200
31 200
32 50
33 10
34 10
35 10
36 200
37 100
38 10
39 10
40 10
41 10
42 200
43 50
44 200
45 50
46 10
47 10
48 100
49 10
50 10
51 10
52 10
53 200
54 200
55 10
56 200
57 200
58 10
59 10
60 200
61 50
62 10
63 10
64 10
65 10
66 200
67 10
68 200
69 100
70 10
71 200
72 200
73 10
74 10
75 10
76 10
77 200
78 10
79 10
80 10
81 200
82 100
83 10
84 10
85 10
86 200
87 100
88 200
89 200
90 100
91 200
92 100
93 10
94 10
95 200
96 100
97 100
98 50
99 10
100 10
101 200
102 100
103 50
104 10
105 10
106 200
107 200
108 10
109 10
110 10
111 100
112 10
113 10
114 10
115 10
116 200
117 200
118 50
119 10
120 10
121 10
122 10
123 200
124 100
125 50
126 10
127 10
128 200
129 50
130 10
131 200
132 100
133 50
134 200
135 200
136 100
137 200
138 100
139 50
140 10
141 10
142 10
143 200
144 100
145 10
146 10
147 10
148 200
149 10
150 200
151 50
152 10
153 10
154 10
155 200
156 10
157 10
158 10
159 200
160 100
161 50
162 100
163 50
164 100
165 10
166 10
167 10
168 200
169 200
170 10
171 10
172 200
173 200
174 10
175 200
176 200
177 10
178 10
179 100
180 50
181 10
182 10
183 200
184 50
185 200
186 10
187 10
188 10
189 200
190 10
191 10
192 10
193 10
194 200
195 50
196 10
197 10
198 10
199 10
200 200
201 100
202 10
203 10
204 100
205 50
206 10
207 200
208 100
209 50
210 10
211 200
212 50
213 10
214 10
215 10
216 10
217 200
218 200
219 50
220 10
221 10
222 100
223 50
224 10
225 10
226 10
227 200
228 100
229 50
230 10
231 10
232 200
233 100
234 10
235 10
236 10
237 200
238 50
239 200
240 200
241 10
242 10
243 10
244 200
245 200
246 50
247 200
248 200
249 10
250 200
251 100
252 50
253 200
254 10
255 10
256 10
257 10
258 200
259 100
260 50
261 10
262 10
263 10
264 200
265 10
266 10
267 10
268 200
269 50
270 200
271 200
272 50
273 10
274 10
275 10
276 10
277 200
278 200
279 50
280 10
281 100
282 50
283 10
284 10
285 10
286 10
287 200
288 50
289 10
290 100
291 50
292 10
293 100
294 50
295 10
296 10
297 10
298 10
299 200
300 100
301 10
302 10
303 200
304 200
305 10
306 200
307 200
308 200
309 100
310 50
311 200
312 50
313 200
314 200
315 10
316 10
317 10
318 200
319 100
320 10
321 10
322 200
323 50
324 10
325 10
326 10
327 200
328 100
329 50
330 10
331 10
332 10
333 10
334 100
335 50
336 10
337 10
338 200
339 200
340 50
341 10
342 10
343 10
344 10
345 200
346 100
347 200
348 100
349 50
350 10
351 10
352 10
353 10
354 100
355 10
356 10
357 100
358 50
359 10
360 10
361 200
362 50
363 10
364 10
365 200
366 100
367 10
368 10
369 200
370 100
371 10
372 10
373 10
374 100
375 10
376 10
377 10
378 10
379 200
380 200
381 50
382 10
383 10
384 10
385 100
386 50
387 10
388 10
389 200
390 100
391 50
392 10
393 10
394 200
395 50
396 10
397 10
398 10
399 10
400 100
401 50
402 10
403 10
404 10
405 200
406 200
407 10
408 200
409 200
410 10
411 200
412 10
413 10
414 10
415 10
DEPOT_SECTION
1
-1
EOF