Normalized Data/p03_6_normalized_splitx10_0.sol
414 -3 6 2 5 1 4 236 237 105 107 -9 8 10 7 163 165 166 164 322 321 325 324 323 -11 36 39 38 37 40 35 223 222 225 224 221 337 341 339 342 338 -25 26 28 27 345 344 306 305 -33 32 31 34 30 29 404 406 405 -42 41 110 111 113 112 114 213 212 215 210 211 142 146 145 144 143 -63 64 62 60 61 59 235 234 232 231 233 156 155 157 154 81 -66 65 151 149 153 152 150 363 361 362 360 414 412 410 413 411 -69 67 68 54 53 52 292 297 296 293 294 295 198 197 196 194 195 -75 72 71 73 70 74 259 257 260 85 86 -77 79 78 76 250 249 251 281 280 285 282 283 284 264 265 263 266 -84 80 82 83 371 368 370 372 369 187 184 193 -87 88 89 247 246 248 -91 92 93 90 100 103 101 104 102 398 394 393 397 396 395 -109 108 106 217 220 55 57 58 56 374 375 373 377 376 -125 123 94 95 354 355 353 242 240 238 239 241 -127 128 129 169 167 168 170 256 254 252 255 253 -132 130 131 140 138 141 136 139 137 311 310 -134 314 315 316 312 313 367 364 365 366 -135 317 320 318 319 356 357 359 358 48 49 50 47 51 286 288 287 -147 148 207 208 206 209 188 189 192 191 190 13 12 14 214 -162 161 390 389 392 391 388 17 20 19 18 176 175 177 -174 16 15 276 277 279 278 348 -183 182 243 245 244 384 385 386 387 261 258 262 -185 186 117 121 119 118 115 120 116 407 408 409 309 -202 199 200 201 298 300 299 301 23 24 21 22 340 343 -219 218 216 98 99 97 96 133 335 336 334 333 399 403 401 400 402 -226 228 204 203 205 172 171 173 290 291 289 -230 227 229 159 160 158 178 181 180 179 45 43 44 46 271 -268 267 331 329 330 332 327 328 326 352 350 349 346 351 347 -269 273 274 275 272 270 122 126 124 307 308 -302 303 304 379 382 378 380 381 383 0 





OBJ=
2875.416
BEST_KNOWN=
0.000